 200 38 
 82 50 42 90 42 87 52 55 25 62 15 34 
 6 35 2 12 22 26 98 13 27 91 22 96 
 68 3 52 71 17 50 23 56 4 32 84 26 
 65 78 
 12 
 11 14 16 17 19 22 25 27 29 32 33 34 
 16 
 1 2 5 7 11 15 16 18 19 21 23 27 
 29 33 35 37 
 36 
 1 2 3 4 5 6 7 8 9 10 11 12 
 13 14 15 16 17 18 19 21 22 24 25 26 
 27 28 29 30 31 32 33 34 35 36 37 38 
 17 
 3 6 10 12 19 20 21 23 25 28 29 30 
 31 32 33 34 36 
 20 
 2 3 5 8 13 14 15 16 17 20 21 22 
 25 26 28 29 31 33 37 38 
 16 
 3 6 7 8 10 17 18 19 22 26 28 29 
 31 33 34 35 
 5 
 13 18 34 36 38 
 32 
 1 2 3 4 5 6 7 8 9 10 11 12 
 13 14 15 16 17 18 19 20 22 24 26 28 
 29 31 33 34 35 36 37 38 
 19 
 1 2 3 5 10 12 13 15 16 18 23 24 
 25 26 27 28 30 31 36 
 17 
 1 3 5 8 10 15 17 18 19 20 21 22 
 25 28 29 34 36 
 23 
 5 6 8 9 10 12 13 15 16 18 20 22 
 24 25 26 27 29 30 31 33 34 37 38 
 35 
 1 2 3 4 6 7 8 9 10 11 12 13 
 14 15 16 17 18 20 21 22 23 24 25 26 
 27 28 29 30 31 33 34 35 36 37 38 
 25 
 3 6 7 10 11 12 13 14 15 16 21 22 
 24 25 26 27 28 30 31 32 33 34 35 36 
 37 
 31 
 1 2 3 4 5 7 8 10 11 12 13 14 
 15 16 17 18 19 20 22 23 24 26 27 28 
 29 30 31 33 34 36 38 
 33 
 1 2 3 4 6 7 8 9 10 12 13 14 
 15 16 17 18 19 20 21 22 24 26 27 28 
 29 31 32 33 34 35 36 37 38 
 25 
 1 3 4 5 6 7 9 11 13 14 15 16 
 17 19 23 24 25 26 30 31 32 33 34 37 
 38 
 11 
 3 5 6 8 16 18 23 29 32 35 38 
 29 
 2 3 5 6 7 9 10 11 12 14 15 16 
 17 18 19 20 21 23 24 25 26 27 29 32 
 33 35 36 37 38 
 22 
 2 3 4 5 6 12 13 15 16 17 18 19 
 23 24 27 30 31 32 34 35 36 37 
 10 
 2 4 12 19 20 22 24 26 29 35 
 7 
 5 8 11 13 15 17 33 
 12 
 1 5 10 11 14 17 24 29 33 34 36 37 
 34 
 1 2 3 4 5 6 7 8 9 10 11 12 
 13 14 15 17 18 19 20 21 22 23 24 25 
 26 27 28 29 30 32 33 34 36 38 
 5 
 3 13 24 35 36 
 10 
 3 8 9 11 12 25 29 31 32 35 
 24 
 1 3 4 5 7 8 9 12 13 14 16 18 
 19 21 23 24 25 26 28 31 32 33 36 37 
 2 
 11 28 
 36 
 1 2 3 4 5 6 7 8 9 10 11 12 
 13 14 15 16 17 18 19 20 21 22 24 25 
 26 27 28 29 30 31 32 33 35 36 37 38 
 6 
 2 13 26 29 31 32 
 37 
 1 2 3 4 5 6 7 8 9 10 11 12 
 13 14 15 16 17 18 19 20 21 22 23 24 
 25 26 27 28 29 31 32 33 34 35 36 37 
 38 
 8 
 2 4 8 10 20 22 34 38 
 21 
 1 8 9 10 13 15 16 17 18 19 21 24 
 25 28 29 30 32 33 34 37 38 
 26 
 1 2 6 7 8 9 12 14 15 17 19 22 
 23 24 25 26 27 29 31 32 33 34 35 36 
 37 38 
 15 
 11 14 17 18 20 22 23 24 28 30 31 34 
 35 36 37 
 29 
 1 3 4 6 7 10 11 12 13 14 15 16 
 17 18 19 20 21 26 27 28 30 31 32 33 
 34 35 36 37 38 
 15 
 4 5 6 7 12 13 14 21 25 29 31 33 
 34 35 38 
 20 
 2 3 4 5 6 7 10 12 15 17 19 20 
 21 23 25 27 30 32 35 37 
 34 
 2 3 4 5 6 7 8 9 10 11 12 13 
 14 16 17 18 19 20 22 23 25 26 27 28 
 29 30 31 32 33 34 35 36 37 38 
 19 
 1 2 6 7 10 11 12 16 18 20 21 22 
 23 28 30 33 35 36 37 
 30 
 1 2 3 5 7 9 10 11 12 13 14 15 
 16 17 18 19 20 21 23 24 25 26 27 29 
 30 32 33 35 37 38 
 16 
 4 5 6 7 8 9 12 13 19 21 26 27 
 31 33 34 35 
 31 
 1 2 3 4 5 6 7 8 9 10 11 12 
 13 16 17 18 19 20 21 22 23 24 25 26 
 28 32 34 35 36 37 38 
 30 
 1 2 4 5 7 8 10 12 13 14 15 16 
 17 18 19 20 21 22 24 25 26 29 30 31 
 32 33 34 35 37 38 
 35 
 1 2 3 4 5 6 8 9 10 11 12 13 
 14 15 16 17 18 19 20 21 23 24 25 26 
 27 28 29 30 31 32 34 35 36 37 38 
 5 
 1 6 7 19 28 
 8 
 6 11 14 19 20 21 26 30 
 15 
 4 6 7 9 10 13 15 16 20 24 25 27 
 28 32 38 
 28 
 2 3 5 7 8 9 11 13 14 15 16 17 
 18 20 22 23 24 25 26 27 28 29 30 33 
 34 35 36 37 
 26 
 1 2 4 6 8 10 11 12 13 14 15 16 
 17 18 19 20 23 26 27 28 30 34 35 36 
 37 38 
 23 
 1 2 3 4 6 10 11 12 13 16 17 19 
 20 21 22 24 25 28 29 30 33 34 37 
 19 
 1 8 9 11 12 14 17 18 20 21 22 24 
 25 27 28 33 36 37 38 
 38 
 1 2 3 4 5 6 7 8 9 10 11 12 
 13 14 15 16 17 18 19 20 21 22 23 24 
 25 26 27 28 29 30 31 32 33 34 35 36 
 37 38 
 25 
 3 4 5 6 9 10 15 17 18 19 20 21 
 22 23 25 26 27 28 30 32 33 34 35 36 
 38 
 22 
 3 5 9 10 12 13 16 17 19 21 23 24 
 27 28 29 30 31 33 35 36 37 38 
 19 
 1 4 6 7 9 11 14 16 17 20 21 23 
 26 27 29 32 33 34 38 
 28 
 1 5 6 7 8 10 11 12 13 15 16 18 
 19 20 21 22 23 24 25 27 28 29 30 32 
 33 36 37 38 
 34 
 1 3 4 5 6 7 8 9 10 12 13 14 
 15 16 17 18 19 20 21 22 23 24 25 26 
 27 28 29 31 33 34 35 36 37 38 
 35 
 1 2 3 4 5 6 7 8 9 10 11 12 
 13 14 15 16 17 18 20 21 22 24 25 26 
 27 28 29 30 32 33 34 35 36 37 38 
 30 
 1 2 3 4 5 6 7 9 11 12 14 15 
 16 18 20 21 22 23 24 25 26 27 28 29 
 30 31 32 33 35 36 
 27 
 3 5 6 7 8 9 10 11 12 13 15 16 
 18 19 20 21 22 23 24 25 26 27 28 29 
 31 32 37 
 21 
 1 3 4 5 9 10 11 14 16 17 23 24 
 25 27 29 31 32 33 34 37 38 
 34 
 1 2 4 6 7 8 9 10 11 12 13 14 
 15 16 17 19 20 21 22 23 24 25 26 27 
 28 29 30 31 32 33 34 35 36 37 
 31 
 1 2 3 4 5 6 7 8 9 10 13 14 
 15 16 17 18 20 21 24 25 26 27 30 31 
 32 33 34 35 36 37 38 
 32 
 1 2 3 4 5 6 7 8 11 12 13 15 
 16 17 18 19 20 21 22 24 25 26 27 28 
 29 31 32 33 35 36 37 38 
 21 
 2 3 6 8 10 11 13 19 22 23 24 25 
 26 27 28 29 30 31 33 37 38 
 31 
 2 3 4 5 7 8 9 10 11 13 14 15 
 16 19 20 22 23 24 25 26 27 28 29 30 
 31 32 33 34 35 37 38 
 6 
 11 17 20 30 31 33 
 14 
 8 10 12 16 17 19 20 25 27 28 33 34 
 35 38 
 23 
 2 4 8 9 10 12 13 14 15 17 18 19 
 21 23 24 26 27 29 30 32 34 35 36 
 29 
 2 3 4 5 6 7 8 10 11 13 14 15 
 16 17 18 19 20 21 22 24 26 27 28 29 
 30 31 32 35 36 
 26 
 2 3 4 5 8 9 10 12 15 16 17 18 
 19 20 22 23 24 25 26 27 28 29 33 34 
 36 38 
 28 
 1 2 3 5 6 8 10 11 13 14 15 16 
 17 19 20 21 22 23 24 25 27 30 33 34 
 35 36 37 38 
 22 
 1 3 4 8 9 10 11 12 14 15 17 20 
 22 25 28 29 31 32 34 35 37 38 
 14 
 8 10 13 16 18 19 23 27 28 29 30 31 
 35 37 
 10 
 1 3 7 12 15 19 21 28 30 37 
 8 
 7 8 9 14 17 25 26 32 
 37 
 1 2 3 4 5 6 7 8 9 10 11 12 
 13 14 15 16 17 18 19 20 21 22 23 24 
 25 26 27 28 30 31 32 33 34 35 36 37 
 38 
 24 
 1 3 4 5 6 7 9 10 16 17 18 19 
 21 23 24 25 26 28 31 32 33 34 36 38 
 16 
 1 2 3 6 8 9 10 13 14 15 17 20 
 21 25 28 32 
 30 
 1 2 3 4 5 6 7 8 10 11 12 13 
 15 16 18 19 20 21 22 23 24 26 27 28 
 30 31 32 34 35 38 
 6 
 7 10 21 27 28 30 
 34 
 1 3 4 5 7 8 9 10 11 12 13 14 
 15 16 17 18 19 20 22 23 24 25 26 27 
 28 29 31 32 33 34 35 36 37 38 
 5 
 3 9 15 18 34 
 13 
 2 6 10 12 13 15 16 18 21 23 25 28 
 33 
 17 
 1 3 5 8 9 10 11 13 16 20 21 25 
 26 27 29 36 38 
 21 
 2 3 4 7 9 11 13 14 15 17 19 20 
 21 23 25 26 27 28 33 35 37 
 16 
 6 10 12 15 16 21 22 23 24 26 28 29 
 30 32 35 38 
 37 
 1 2 3 4 5 6 7 8 9 10 11 12 
 13 14 15 16 17 18 19 20 21 22 23 24 
 26 27 28 29 30 31 32 33 34 35 36 37 
 38 
 22 
 4 5 6 7 9 10 11 13 14 17 19 20 
 21 22 24 25 31 32 33 34 35 38 
 14 
 3 4 6 8 10 11 18 19 20 22 25 26 
 30 37 
 26 
 1 4 5 6 8 9 10 11 12 13 14 17 
 18 19 20 21 23 24 27 28 30 32 34 35 
 36 38 
 34 
 1 2 3 5 6 7 8 9 10 11 12 13 
 14 15 16 17 18 19 21 22 23 24 25 26 
 27 28 29 30 31 32 33 36 37 38 
 18 
 2 4 5 7 8 9 13 15 17 18 20 22 
 28 29 31 32 36 38 
 17 
 4 5 8 12 13 15 17 18 20 21 22 23 
 28 30 31 34 37 
 13 
 2 4 5 7 8 9 11 17 19 20 21 23 
 25 
 38 
 1 2 3 4 5 6 7 8 9 10 11 12 
 13 14 15 16 17 18 19 20 21 22 23 24 
 25 26 27 28 29 30 31 32 33 34 35 36 
 37 38 
 5 
 2 15 16 23 32 
 19 
 1 3 4 7 8 11 12 13 15 16 19 21 
 26 27 28 31 33 34 36 
 6 
 3 7 11 21 23 25 
 18 
 2 5 7 8 13 14 15 17 19 24 26 30 
 31 32 33 34 36 37 
 4 
 12 16 23 25 
 17 
 1 2 6 10 12 16 17 21 22 23 27 29 
 31 34 35 36 37 
 11 
 2 3 4 5 10 11 14 20 25 28 29 
 32 
 1 2 3 4 5 6 7 8 9 11 12 13 
 14 16 17 18 19 20 21 22 23 24 25 27 
 28 31 32 33 34 35 36 38 
 6 
 15 20 23 32 35 37 
 35 
 1 2 3 4 5 6 7 10 11 12 13 14 
 15 16 17 18 19 21 22 23 24 25 26 27 
 28 29 30 31 32 33 34 35 36 37 38 
 25 
 2 3 4 5 6 7 10 12 15 16 21 22 
 23 24 25 27 28 29 30 31 32 34 35 37 
 38 
 8 
 1 2 4 23 29 34 37 38 
 6 
 9 14 15 28 30 35 
 5 
 7 11 18 30 34 
 26 
 1 3 4 6 7 8 9 10 14 15 17 19 
 20 22 24 25 26 27 28 30 32 33 34 36 
 37 38 
 31 
 1 2 3 4 5 7 8 9 10 12 13 14 
 16 17 18 19 20 21 22 23 24 25 26 27 
 29 30 31 32 33 35 38 
 29 
 1 3 4 6 7 8 9 11 12 13 14 17 
 18 19 20 21 22 24 25 27 28 29 31 32 
 33 34 35 37 38 
 10 
 5 7 8 10 15 22 23 25 31 37 
 26 
 1 2 3 5 7 9 10 11 12 13 14 16 
 17 18 19 20 22 25 27 28 29 31 32 33 
 34 36 
 15 
 2 3 10 13 14 16 21 22 26 28 29 30 
 35 36 37 
 34 
 1 2 3 4 6 7 8 9 10 11 12 13 
 14 15 16 17 19 20 21 22 23 24 25 27 
 28 29 30 31 32 33 34 35 36 37 
 24 
 6 7 9 10 11 12 13 14 15 16 17 18 
 19 20 24 26 28 29 30 31 32 33 35 37 
 36 
 1 2 3 4 5 6 7 8 9 10 11 12 
 13 14 15 16 17 18 19 20 21 22 23 24 
 25 26 27 28 29 30 32 33 35 36 37 38 
 2 
 26 27 
 36 
 1 2 3 4 5 6 7 8 9 10 11 12 
 13 14 15 16 17 18 19 21 22 23 25 26 
 27 28 29 30 31 32 33 34 35 36 37 38 
 33 
 2 4 5 7 8 9 10 11 12 13 14 15 
 16 17 18 19 20 21 22 23 24 25 26 27 
 28 29 31 32 33 35 36 37 38 
 15 
 3 4 5 13 15 17 18 22 23 26 27 30 
 32 33 37 
 4 
 3 6 16 34 
 14 
 1 4 6 9 13 14 16 19 21 25 28 32 
 34 38 
 29 
 1 2 4 5 6 7 8 9 11 14 16 17 
 18 19 21 24 25 26 27 28 29 30 31 32 
 33 34 35 36 38 
 34 
 1 2 3 4 6 7 8 9 11 12 13 14 
 15 16 17 18 19 20 21 22 25 26 27 28 
 29 30 31 32 33 34 35 36 37 38 
 2 
 6 8 
 17 
 1 5 7 9 10 16 18 20 21 22 25 26 
 27 29 30 33 34 
 19 
 1 2 4 7 9 13 14 15 16 18 21 22 
 24 28 33 34 35 37 38 
 26 
 1 2 3 5 6 8 9 10 12 14 15 17 
 20 22 23 24 25 26 27 28 29 30 32 35 
 36 38 
 9 
 3 4 9 12 22 26 27 31 32 
 9 
 2 5 13 15 24 26 28 36 38 
 13 
 3 4 5 9 16 19 26 27 29 30 32 35 
 38 
 14 
 2 4 6 16 18 19 24 25 27 29 31 32 
 36 37 
 27 
 1 3 5 6 8 9 10 11 12 13 15 17 
 18 19 20 21 23 25 26 27 29 30 31 32 
 33 35 37 
 15 
 3 6 7 12 14 17 19 20 24 25 26 30 
 31 36 38 
 36 
 1 2 3 4 5 6 7 8 9 10 11 13 
 14 16 17 18 19 20 21 22 23 24 25 26 
 27 28 29 30 31 32 33 34 35 36 37 38 
 16 
 4 6 9 10 11 14 15 19 21 22 23 27 
 30 31 33 38 
 26 
 1 2 4 5 6 9 10 11 12 13 16 17 
 20 22 23 25 27 28 29 30 31 32 34 35 
 37 38 
 27 
 1 2 4 7 8 12 13 14 15 17 18 19 
 20 21 22 23 24 25 26 28 29 30 31 32 
 33 36 38 
 20 
 3 5 8 9 10 11 14 15 18 19 21 23 
 24 27 28 29 31 36 37 38 
 24 
 2 5 6 7 8 9 10 13 15 16 19 22 
 24 27 28 29 30 31 32 33 34 36 37 38 
 37 
 1 2 3 4 5 6 7 8 9 10 11 12 
 13 15 16 17 18 19 20 21 22 23 24 25 
 26 27 28 29 30 31 32 33 34 35 36 37 
 38 
 38 
 1 2 3 4 5 6 7 8 9 10 11 12 
 13 14 15 16 17 18 19 20 21 22 23 24 
 25 26 27 28 29 30 31 32 33 34 35 36 
 37 38 
 6 
 6 8 23 25 36 37 
 22 
 3 4 5 6 7 8 9 10 11 12 13 14 
 21 22 26 27 32 33 34 36 37 38 
 22 
 3 4 5 6 7 9 11 12 14 17 19 23 
 24 26 27 29 30 31 33 35 37 38 
 13 
 2 7 9 12 18 19 21 22 27 30 35 36 
 38 
 20 
 1 3 4 5 6 8 14 18 19 20 22 23 
 25 28 29 30 33 36 37 38 
 15 
 3 5 6 9 10 11 12 13 15 20 22 26 
 31 32 34 
 11 
 2 7 9 13 14 16 22 27 28 34 36 
 31 
 1 2 3 4 5 6 7 8 9 10 11 16 
 17 18 19 20 21 22 23 24 25 26 27 28 
 29 31 32 33 34 35 38 
 4 
 6 13 21 34 
 7 
 1 5 8 21 28 31 34 
 7 
 6 11 12 15 16 20 35 
 35 
 1 3 4 5 6 7 8 9 10 11 12 13 
 14 15 16 17 18 19 20 21 22 24 25 26 
 27 28 29 30 32 33 34 35 36 37 38 
 7 
 5 15 18 19 20 29 33 
 2 
 24 25 
 32 
 1 2 3 4 5 6 7 8 10 11 12 13 
 14 16 17 19 20 21 22 23 24 25 27 28 
 29 30 31 32 35 36 37 38 
 31 
 1 2 4 5 7 8 9 10 11 12 13 15 
 16 19 20 21 22 23 24 25 26 27 28 29 
 31 32 33 34 36 37 38 
 37 
 1 2 3 4 6 7 8 9 10 11 12 13 
 14 15 16 17 18 19 20 21 22 23 24 25 
 26 27 28 29 30 31 32 33 34 35 36 37 
 38 
 8 
 1 4 10 12 16 23 27 28 
 20 
 1 3 5 7 8 10 12 13 14 15 18 19 
 23 24 27 28 29 31 32 36 
 37 
 1 2 3 4 5 6 7 8 9 10 11 12 
 13 14 15 16 17 18 19 20 21 22 24 25 
 26 27 28 29 30 31 32 33 34 35 36 37 
 38 
 8 
 1 2 7 10 29 33 34 37 
 26 
 1 3 5 7 8 9 10 12 13 14 15 16 
 17 18 20 22 23 24 26 27 29 31 33 34 
 36 37 
 38 
 1 2 3 4 5 6 7 8 9 10 11 12 
 13 14 15 16 17 18 19 20 21 22 23 24 
 25 26 27 28 29 30 31 32 33 34 35 36 
 37 38 
 15 
 7 15 16 17 18 20 23 24 26 27 28 30 
 32 33 37 
 34 
 1 2 3 4 5 6 7 8 9 10 11 12 
 13 14 15 17 18 20 21 23 24 25 26 27 
 28 29 30 31 32 34 35 36 37 38 
 11 
 4 6 10 11 13 17 24 26 29 34 38 
 31 
 1 2 3 4 5 6 8 9 10 11 12 14 
 16 17 18 19 21 22 23 25 26 27 28 29 
 30 32 33 34 35 36 37 
 17 
 1 2 5 6 9 10 13 16 17 20 23 25 
 27 31 34 35 38 
 11 
 4 5 7 13 17 19 20 25 28 34 36 
 32 
 1 2 3 4 5 6 7 8 10 11 12 13 
 14 15 17 18 19 20 22 23 25 26 27 28 
 29 30 31 32 33 35 36 37 
 16 
 1 4 5 6 14 16 20 22 24 26 29 30 
 31 33 34 37 
 17 
 4 7 8 12 14 23 24 25 27 28 29 30 
 32 33 34 35 37 
 25 
 1 2 4 5 9 10 11 12 15 16 19 20 
 24 25 26 27 28 29 30 32 33 34 35 36 
 38 
 5 
 2 13 30 36 38 
 26 
 2 3 5 6 7 9 11 14 15 16 17 18 
 19 20 21 22 23 25 26 28 29 30 31 33 
 37 38 
 36 
 1 2 3 4 5 7 8 9 10 11 12 13 
 14 15 16 17 18 19 20 21 22 23 24 25 
 26 27 28 29 30 32 33 34 35 36 37 38 
 30 
 1 2 3 4 5 6 7 9 10 11 13 16 
 17 18 19 20 22 23 24 25 26 29 30 31 
 32 33 34 35 36 38 
 28 
 1 2 3 5 6 7 8 9 10 11 13 14 
 15 17 18 19 22 24 25 26 28 30 32 33 
 34 35 37 38 
 20 
 1 2 5 6 8 10 12 13 15 16 17 24 
 25 27 29 30 31 34 37 38 
 28 
 1 2 3 6 8 9 10 11 12 15 18 19 
 20 21 22 23 24 25 26 27 28 29 30 31 
 33 34 36 37 
 33 
 1 2 3 4 6 7 8 9 10 11 12 13 
 14 15 16 18 19 20 21 22 24 25 27 28 
 29 30 31 33 34 35 36 37 38 
 12 
 2 7 11 12 16 21 23 30 32 33 37 38 
 23 
 1 3 4 6 8 10 11 13 14 15 16 17 
 19 20 21 23 28 31 32 33 35 37 38 
 27 
 2 4 5 6 7 8 9 10 11 12 14 16 
 17 18 20 21 23 25 27 30 31 32 33 35 
 36 37 38 
 9 
 2 5 7 11 14 16 25 31 35 
 35 
 1 2 3 4 5 7 8 9 10 11 12 13 
 14 15 16 17 18 19 20 21 22 23 24 25 
 26 27 28 29 30 31 32 33 36 37 38 
 26 
 1 2 3 4 6 9 10 11 13 15 18 19 
 20 21 22 25 26 27 28 29 30 31 34 35 
 37 38 
 4 
 4 20 21 31 
 14 
 1 6 8 9 12 13 19 20 24 27 31 33 
 34 38 
 27 
 1 4 5 6 7 9 10 12 14 16 17 18 
 19 21 22 24 26 27 29 30 31 33 34 35 
 36 37 38 
 19 
 3 4 5 6 9 10 12 15 17 18 21 22 
 25 27 28 31 32 34 36 
 10 
 10 14 15 25 27 29 30 32 35 37 
 5 
 1 7 17 21 31 
 3 
 4 12 23 
 15 
 2 4 10 17 18 19 20 23 28 29 30 32 
 35 37 38 
 